computational_data/solutions/ER_n40_p035_s5.sol
Optimal - objective value 8.00000000
      2 r_2                         1                       1
      9 r_9                         1                       1
     30 r_30                        1                       1
     35 r_35                        1                       1
     46 b_6                         1                       1
     47 b_7                         1                       1
     52 b_12                        1                       1
     58 b_18                        1                       1
