computational_data/logs/ER_n40_p035_s5.log
Welcome to the CBC MILP Solver 
Version: 2.10.12 
Build Date: Aug 20 2024 

command line - /opt/homebrew/bin/cbc computational_data/lp/ER_n40_p035_s5.lp seconds 10.0 solve solu computational_data/solutions/ER_n40_p035_s5.sol (default strategy 1)
seconds was changed from 1e+100 to 10
Continuous objective value is 5.34585 - 0.00 seconds
Cgl0003I 0 fixed, 0 tightened bounds, 434 strengthened rows, 0 substitutions
Cgl0003I 0 fixed, 0 tightened bounds, 310 strengthened rows, 0 substitutions
Cgl0003I 0 fixed, 0 tightened bounds, 156 strengthened rows, 0 substitutions
Cgl0003I 0 fixed, 0 tightened bounds, 54 strengthened rows, 0 substitutions
Cgl0003I 0 fixed, 0 tightened bounds, 18 strengthened rows, 0 substitutions
Cgl0003I 0 fixed, 0 tightened bounds, 7 strengthened rows, 0 substitutions
Cgl0003I 0 fixed, 0 tightened bounds, 2 strengthened rows, 0 substitutions
Cgl0004I processed model has 436 rows, 80 columns (80 integer (80 of which binary)) and 2603 elements
Cutoff increment increased from 1e-05 to 0.9999
Cbc0038I Initial state - 46 integers unsatisfied sum - 5.34585
Cbc0038I Pass   1: suminf.    5.36965 (42) obj. 5.36965 iterations 18
Cbc0038I Pass   2: suminf.    6.51667 (21) obj. 6.51667 iterations 59
Cbc0038I Pass   3: suminf.    4.94958 (28) obj. 7.63866 iterations 62
Cbc0038I Pass   4: suminf.    5.32042 (30) obj. 7.5669 iterations 79
Cbc0038I Pass   5: suminf.    2.33333 (7) obj. 9.33333 iterations 60
Cbc0038I Pass   6: suminf.    0.00000 (0) obj. 10 iterations 56
Cbc0038I Solution found of 10
Cbc0038I Before mini branch and bound, 18 integers at bound fixed and 0 continuous
Cbc0038I Full problem 436 rows 80 columns, reduced to 395 rows 62 columns - 5 fixed gives 45, 17 - ok now
Cbc0038I Full problem 436 rows 80 columns, reduced to 37 rows 15 columns
Cbc0038I Mini branch and bound improved solution from 10 to 9 (0.03 seconds)
Cbc0038I Round again with cutoff of 7.73468
Cbc0038I Pass   7: suminf.    5.36965 (42) obj. 5.36965 iterations 0
Cbc0038I Pass   8: suminf.    7.73468 (17) obj. 7.73468 iterations 84
Cbc0038I Pass   9: suminf.    5.40000 (18) obj. 7.6 iterations 37
Cbc0038I Pass  10: suminf.    3.61111 (22) obj. 7.16667 iterations 52
Cbc0038I Pass  11: suminf.    2.41374 (28) obj. 7.73468 iterations 55
Cbc0038I Pass  12: suminf.    2.26532 (13) obj. 7.73468 iterations 35
Cbc0038I Pass  13: suminf.    5.05814 (21) obj. 7.73468 iterations 64
Cbc0038I Pass  14: suminf.    2.80000 (11) obj. 7.6 iterations 72
Cbc0038I Pass  15: suminf.    2.53333 (16) obj. 7.73333 iterations 22
Cbc0038I Pass  16: suminf.    4.24338 (18) obj. 7.73468 iterations 98
Cbc0038I Pass  17: suminf.    3.01633 (20) obj. 7.73468 iterations 42
Cbc0038I Pass  18: suminf.    2.66406 (17) obj. 7.73468 iterations 53
Cbc0038I Pass  19: suminf.    4.26532 (15) obj. 7.73468 iterations 90
Cbc0038I Pass  20: suminf.    2.92361 (18) obj. 7.28472 iterations 92
Cbc0038I Pass  21: suminf.    2.60000 (11) obj. 7.66667 iterations 35
Cbc0038I Pass  22: suminf.    2.26532 (9) obj. 7.73468 iterations 35
Cbc0038I Pass  23: suminf.    2.76461 (22) obj. 7.73468 iterations 64
Cbc0038I Pass  24: suminf.    5.68793 (24) obj. 7.73468 iterations 51
Cbc0038I Pass  25: suminf.    3.82511 (27) obj. 7.73468 iterations 53
Cbc0038I Pass  26: suminf.    5.56213 (27) obj. 7.73468 iterations 100
Cbc0038I Pass  27: suminf.    4.00381 (24) obj. 7.73468 iterations 54
Cbc0038I Pass  28: suminf.    5.91483 (26) obj. 7.73468 iterations 66
Cbc0038I Pass  29: suminf.    3.84941 (26) obj. 7.73468 iterations 44
Cbc0038I Pass  30: suminf.    3.63035 (21) obj. 7.73468 iterations 17
Cbc0038I Pass  31: suminf.    6.90210 (27) obj. 7.73468 iterations 62
Cbc0038I Pass  32: suminf.    4.54053 (29) obj. 7.02261 iterations 57
Cbc0038I Pass  33: suminf.    4.32530 (31) obj. 7.46988 iterations 26
Cbc0038I Pass  34: suminf.    3.81633 (22) obj. 7.73468 iterations 36
Cbc0038I Pass  35: suminf.    5.55069 (23) obj. 7.73468 iterations 62
Cbc0038I Pass  36: suminf.    3.90134 (18) obj. 7.73468 iterations 27
Cbc0038I No solution found this major pass
Cbc0038I Before mini branch and bound, 1 integers at bound fixed and 0 continuous
Cbc0038I Full problem 436 rows 80 columns, reduced to 435 rows 79 columns - 7 fixed gives 15, 7 - ok now
Cbc0038I Mini branch and bound did not improve solution (0.08 seconds)
Cbc0038I After 0.08 seconds - Feasibility pump exiting with objective of 9 - took 0.06 seconds
Cbc0012I Integer solution of 9 found by feasibility pump after 0 iterations and 0 nodes (0.08 seconds)
Cbc0038I Full problem 436 rows 80 columns, reduced to 332 rows 48 columns - 7 fixed gives 0, 0 - ok now
Cbc0031I 10 added rows had average density of 80
Cbc0013I At root node, 10 cuts changed objective from 5.3458514 to 5.5208451 in 100 passes
Cbc0014I Cut generator 0 (Probing) - 0 row cuts average 0.0 elements, 0 column cuts (0 active)  in 0.075 seconds - new frequency is -100
Cbc0014I Cut generator 1 (Gomory) - 1279 row cuts average 80.0 elements, 0 column cuts (0 active)  in 0.042 seconds - new frequency is -100
Cbc0014I Cut generator 2 (Knapsack) - 0 row cuts average 0.0 elements, 0 column cuts (0 active)  in 0.007 seconds - new frequency is -100
Cbc0014I Cut generator 3 (Clique) - 0 row cuts average 0.0 elements, 0 column cuts (0 active)  in 0.014 seconds - new frequency is -100
Cbc0014I Cut generator 4 (MixedIntegerRounding2) - 205 row cuts average 80.0 elements, 0 column cuts (0 active)  in 0.037 seconds - new frequency is 1
Cbc0014I Cut generator 5 (FlowCover) - 0 row cuts average 0.0 elements, 0 column cuts (0 active)  in 0.002 seconds - new frequency is -100
Cbc0010I After 0 nodes, 1 on tree, 9 best solution, best possible 5.5208451 (0.59 seconds)
Cbc0016I Integer solution of 8 found by strong branching after 6137 iterations and 18 nodes (0.94 seconds)
Cbc0038I Full problem 436 rows 80 columns, reduced to 235 rows 40 columns - 1 fixed gives 172, 33 - ok now
Cbc0001I Search completed - best objective 8, took 9488 iterations and 86 nodes (1.45 seconds)
Cbc0032I Strong branching done 1314 times (33147 iterations), fathomed 13 nodes and fixed 4 variables
Cbc0035I Maximum depth 20, 243 variables fixed on reduced cost
Cuts at root node changed objective from 5.34585 to 5.52085
Probing was tried 100 times and created 0 cuts of which 0 were active after adding rounds of cuts (0.075 seconds)
Gomory was tried 100 times and created 1279 cuts of which 0 were active after adding rounds of cuts (0.042 seconds)
Knapsack was tried 100 times and created 0 cuts of which 0 were active after adding rounds of cuts (0.007 seconds)
Clique was tried 100 times and created 0 cuts of which 0 were active after adding rounds of cuts (0.014 seconds)
MixedIntegerRounding2 was tried 129 times and created 212 cuts of which 0 were active after adding rounds of cuts (0.044 seconds)
FlowCover was tried 100 times and created 0 cuts of which 0 were active after adding rounds of cuts (0.002 seconds)
TwoMirCuts was tried 1 times and created 0 cuts of which 0 were active after adding rounds of cuts (0.001 seconds)
ZeroHalf was tried 1 times and created 0 cuts of which 0 were active after adding rounds of cuts (0.002 seconds)

Result - Optimal solution found

Objective value:                8.00000000
Enumerated nodes:               86
Total iterations:               9488
Time (CPU seconds):             1.46
Time (Wallclock seconds):       1.50

Total time (CPU seconds):       1.46   (Wallclock seconds):       1.51

